  8	55
 18
  0	 10	 29	 12	 16	 84	 65	 49	 36	 71	 15	 46	 70	 91	 67	101	104	111	
 16
  0	  6	 61	  2	 30	  3	 57	 13	 85	 58	 41	 96	 39	 68	 94	111	
 12
  0	 27	 55	 82	 18	110	 21	 54	 76	 73	109	111	
 24
  0	 43	 14	 24	 69	 98	 79	 34	 19	 32	 37	 74	 87	 25	 47	 89	 80	  4	 92	 59	 26	102	 81	111	
 16
  0	 33	 35	 88	 28	 23	 83	 78	 90	 48	 52	107	 44	 99	103	111	
 16
  0	  1	 56	 22	 11	 51	 77	  5	 66	 40	  9	106	 95	 64	 60	111	
 14
  0	 53	 31	 86	 20	108	  8	 75	 63	 17	 72	 50	105	111	
 10
  0	 45	100	 38	  7	 42	 93	 97	 62	111	
